c Random generated cnf formula, satisfiable: true
p cnf 10 50
-5 4 8 0
-6 -3 1 0
7 -2 -10 0
-7 5 3 0
4 -5 9 0
-2 9 7 0
4 7 3 0
6 -9 -8 0
10 2 -9 0
4 -9 -10 0
7 3 5 0
3 -7 -2 0
-5 8 -2 0
2 -3 -1 0
2 9 6 0
3 -7 -4 0
-4 7 6 0
-2 -10 -8 0
-8 -6 -9 0
9 -7 -5 0
-2 -6 -8 0
8 6 -2 0
-2 -6 4 0
-1 2 10 0
-7 -10 -4 0
-4 1 -10 0
-8 4 10 0
1 8 4 0
10 -5 4 0
6 10 2 0
1 6 -3 0
-10 -4 1 0
-10 3 -1 0
5 -3 9 0
-6 4 -1 0
-8 5 1 0
6 4 -3 0
-9 7 -2 0
-3 -10 -6 0
1 -6 4 0
-9 3 6 0
3 8 2 0
8 -3 -2 0
-7 3 1 0
-10 -8 -2 0
-3 2 -8 0
-2 -9 -1 0
2 -8 5 0
-5 3 4 0
4 -8 1 0
